max: 100f0102 + 100f0103 - 10q1 - 20q2;
1y0102 + 1z0102 + 2y0103 + 2z0103 + 1y0203 + 1z0203 + 2y0204 + 2z0204 + 3y0304 + 3z0304 <= 4q1 + 5q2;
1y0102 + 1z0102 + 2y0103 + 2z0103 + 2y0203 + 2z0203 + 1y0204 + 1z0204 + 4y0304 + 4z0304 <= 2q1 + 2q2;
5y0102 + 5z0102 + 0y0103 + 0z0103 + 0y0203 + 0z0203 + 0y0204 + 0z0204 + 6y0304 + 6z0304 <= 0q1 + 1q2;

f0102 <= 5;
f0102 >= -5;
f0103 <= 2;
f0103 >= -2;
f0203 <= 5;
f0203 >= -5;
f0204 <= 2;
f0204 >= -2;
f0304 <= 5;
f0304 >= -5;

y0102 <= 5;
y0102 >= 0;
z0102 <= 5;
z0102 >= 0;

y0103 <= 2;
y0103 >= 0;
z0103 <= 2;
z0103 >= 0;

y0203 <= 5;
y0203 >= 0;
z0203 <= 5;
z0203 >= 0;

y0204 <= 2;
y0204 >= 0;
z0204 <= 2;
z0204 >= 0;

y0304 <= 5;
y0304 >= 0;
z0304 <= 5;
z0304 >= 0;

f0102 = f0203 + f0204;
f0103 + f0203 = f0304;

f0102 = y0102 - z0102;
f0103 = y0103 - z0103;
f0203 = y0203 - z0203;
f0204 = y0204 - z0204;
f0304 = y0304 - z0304;

q1 >= 0;
q2 >= 0;
